;; benchmark_18=2 V0=2 V1=2 V3=2 V4=2 V5=2 V6=2 V7=2 V8=2 V9=2 V10=2 V12=2 V13=2 V17=2 V18=2 V19=2 V21=2 V22=2 V23=2 V24=2 V25=2 V26=2 V27=2 V28=2 V29=2 V30=2 V32=2 V33=2 V35=2 V36=2 V37=2 V38=2 V41=2 V42=2 V43=2 V44=2 V46=2 V47=2 V48=2 V49=2 V50=2 V51=2 V52=2 V53=2 V54=2 V56=2 V58=2 V59=2 V60=2 V61=2 V62=2 V63=2 V64=2 V65=2 V66=2 V67=2 V68=2 V69=2 V70=2 V72=2 V73=2 V74=2 V75=2 V76=2 V77=2 V78=2 V79=2 V80=2 V81=2 V82=2 V83=2 V84=2 V85=2 V86=2 V87=2 V88=2 V89=2 V90=2 V91=2 V92=2 V93=2 V94=2 V95=2 V96=2 V97=2 V98=2 V99=2 V100=2 V101=2 V102=2 V103=2 V104=2 V105=2 V106=2 V107=2 V108=2 V109=2 V110=2 V111=2 V112=2 V113=2 V114=2 V115=2 V116=2 V117=2 V118=2 V119=2 V120=2 V121=2 V122=2 V123=2 V124=2 V125=2 V126=2 V127=2 V128=2 V129=2 V130=2 V131=2 V132=2 V133=2 V134=2 V135=2 V136=2 V137=2 V138=2 V139=2 V140=2 MV2=5 MV11=6 MV14=5 MV15=4 MV16=4 MV20=6 MV31=4 MV34=3 MV39=5 MV40=5 MV45=4 MV55=5 MV57=5 MV71=3
;; 
;; 
(set-logic QF_BV)
(declare-fun benchmark_18 () Bool)
(declare-fun V0 () Bool)
(declare-fun V1 () Bool)
(declare-fun V3 () Bool)
(declare-fun V4 () Bool)
(declare-fun V5 () Bool)
(declare-fun V6 () Bool)
(declare-fun V7 () Bool)
(declare-fun V8 () Bool)
(declare-fun V9 () Bool)
(declare-fun V10 () Bool)
(declare-fun V12 () Bool)
(declare-fun V13 () Bool)
(declare-fun V17 () Bool)
(declare-fun V18 () Bool)
(declare-fun V19 () Bool)
(declare-fun V21 () Bool)
(declare-fun V22 () Bool)
(declare-fun V23 () Bool)
(declare-fun V24 () Bool)
(declare-fun V25 () Bool)
(declare-fun V26 () Bool)
(declare-fun V27 () Bool)
(declare-fun V28 () Bool)
(declare-fun V29 () Bool)
(declare-fun V30 () Bool)
(declare-fun V32 () Bool)
(declare-fun V33 () Bool)
(declare-fun V35 () Bool)
(declare-fun V36 () Bool)
(declare-fun V37 () Bool)
(declare-fun V38 () Bool)
(declare-fun V41 () Bool)
(declare-fun V42 () Bool)
(declare-fun V43 () Bool)
(declare-fun V44 () Bool)
(declare-fun V46 () Bool)
(declare-fun V47 () Bool)
(declare-fun V48 () Bool)
(declare-fun V49 () Bool)
(declare-fun V50 () Bool)
(declare-fun V51 () Bool)
(declare-fun V52 () Bool)
(declare-fun V53 () Bool)
(declare-fun V54 () Bool)
(declare-fun V56 () Bool)
(declare-fun V58 () Bool)
(declare-fun V59 () Bool)
(declare-fun V60 () Bool)
(declare-fun V61 () Bool)
(declare-fun V62 () Bool)
(declare-fun V63 () Bool)
(declare-fun V64 () Bool)
(declare-fun V65 () Bool)
(declare-fun V66 () Bool)
(declare-fun V67 () Bool)
(declare-fun V68 () Bool)
(declare-fun V69 () Bool)
(declare-fun V70 () Bool)
(declare-fun V72 () Bool)
(declare-fun V73 () Bool)
(declare-fun V74 () Bool)
(declare-fun V75 () Bool)
(declare-fun V76 () Bool)
(declare-fun V77 () Bool)
(declare-fun V78 () Bool)
(declare-fun V79 () Bool)
(declare-fun V80 () Bool)
(declare-fun V81 () Bool)
(declare-fun V82 () Bool)
(declare-fun V83 () Bool)
(declare-fun V84 () Bool)
(declare-fun V85 () Bool)
(declare-fun V86 () Bool)
(declare-fun V87 () Bool)
(declare-fun V88 () Bool)
(declare-fun V89 () Bool)
(declare-fun V90 () Bool)
(declare-fun V91 () Bool)
(declare-fun V92 () Bool)
(declare-fun V93 () Bool)
(declare-fun V94 () Bool)
(declare-fun V95 () Bool)
(declare-fun V96 () Bool)
(declare-fun V97 () Bool)
(declare-fun V98 () Bool)
(declare-fun V99 () Bool)
(declare-fun V100 () Bool)
(declare-fun V101 () Bool)
(declare-fun V102 () Bool)
(declare-fun V103 () Bool)
(declare-fun V104 () Bool)
(declare-fun V105 () Bool)
(declare-fun V106 () Bool)
(declare-fun V107 () Bool)
(declare-fun V108 () Bool)
(declare-fun V109 () Bool)
(declare-fun V110 () Bool)
(declare-fun V111 () Bool)
(declare-fun V112 () Bool)
(declare-fun V113 () Bool)
(declare-fun V114 () Bool)
(declare-fun V115 () Bool)
(declare-fun V116 () Bool)
(declare-fun V117 () Bool)
(declare-fun V118 () Bool)
(declare-fun V119 () Bool)
(declare-fun V120 () Bool)
(declare-fun V121 () Bool)
(declare-fun V122 () Bool)
(declare-fun V123 () Bool)
(declare-fun V124 () Bool)
(declare-fun V125 () Bool)
(declare-fun V126 () Bool)
(declare-fun V127 () Bool)
(declare-fun V128 () Bool)
(declare-fun V129 () Bool)
(declare-fun V130 () Bool)
(declare-fun V131 () Bool)
(declare-fun V132 () Bool)
(declare-fun V133 () Bool)
(declare-fun V134 () Bool)
(declare-fun V135 () Bool)
(declare-fun V136 () Bool)
(declare-fun V137 () Bool)
(declare-fun V138 () Bool)
(declare-fun V139 () Bool)
(declare-fun V140 () Bool)
(declare-fun MV2 () (_ BitVec 3))
(assert (and (bvuge MV2 (_ bv0 3)) (bvult MV2 (_ bv5 3))))
(declare-fun MV2_0 () (_ Bool))
(declare-fun MV2_1 () (_ Bool))
(declare-fun MV2_2 () (_ Bool))
(declare-fun MV11 () (_ BitVec 3))
(assert (and (bvuge MV11 (_ bv0 3)) (bvult MV11 (_ bv6 3))))
(declare-fun MV11_0 () (_ Bool))
(declare-fun MV11_1 () (_ Bool))
(declare-fun MV11_2 () (_ Bool))
(declare-fun MV14 () (_ BitVec 3))
(assert (and (bvuge MV14 (_ bv0 3)) (bvult MV14 (_ bv5 3))))
(declare-fun MV14_0 () (_ Bool))
(declare-fun MV14_1 () (_ Bool))
(declare-fun MV14_2 () (_ Bool))
(declare-fun MV15 () (_ BitVec 2))
(declare-fun MV15_0 () (_ Bool))
(declare-fun MV15_1 () (_ Bool))
(declare-fun MV16 () (_ BitVec 2))
(declare-fun MV16_0 () (_ Bool))
(declare-fun MV16_1 () (_ Bool))
(declare-fun MV20 () (_ BitVec 3))
(assert (and (bvuge MV20 (_ bv0 3)) (bvult MV20 (_ bv6 3))))
(declare-fun MV20_0 () (_ Bool))
(declare-fun MV20_1 () (_ Bool))
(declare-fun MV20_2 () (_ Bool))
(declare-fun MV31 () (_ BitVec 2))
(declare-fun MV31_0 () (_ Bool))
(declare-fun MV31_1 () (_ Bool))
(declare-fun MV34 () (_ BitVec 2))
(assert (and (bvuge MV34 (_ bv0 2)) (bvult MV34 (_ bv3 2))))
(declare-fun MV34_0 () (_ Bool))
(declare-fun MV34_1 () (_ Bool))
(declare-fun MV39 () (_ BitVec 3))
(assert (and (bvuge MV39 (_ bv0 3)) (bvult MV39 (_ bv5 3))))
(declare-fun MV39_0 () (_ Bool))
(declare-fun MV39_1 () (_ Bool))
(declare-fun MV39_2 () (_ Bool))
(declare-fun MV40 () (_ BitVec 3))
(assert (and (bvuge MV40 (_ bv0 3)) (bvult MV40 (_ bv5 3))))
(declare-fun MV40_0 () (_ Bool))
(declare-fun MV40_1 () (_ Bool))
(declare-fun MV40_2 () (_ Bool))
(declare-fun MV45 () (_ BitVec 2))
(declare-fun MV45_0 () (_ Bool))
(declare-fun MV45_1 () (_ Bool))
(declare-fun MV55 () (_ BitVec 3))
(assert (and (bvuge MV55 (_ bv0 3)) (bvult MV55 (_ bv5 3))))
(declare-fun MV55_0 () (_ Bool))
(declare-fun MV55_1 () (_ Bool))
(declare-fun MV55_2 () (_ Bool))
(declare-fun MV57 () (_ BitVec 3))
(assert (and (bvuge MV57 (_ bv0 3)) (bvult MV57 (_ bv5 3))))
(declare-fun MV57_0 () (_ Bool))
(declare-fun MV57_1 () (_ Bool))
(declare-fun MV57_2 () (_ Bool))
(declare-fun MV71 () (_ BitVec 2))
(assert (and (bvuge MV71 (_ bv0 2)) (bvult MV71 (_ bv3 2))))
(declare-fun MV71_0 () (_ Bool))
(declare-fun MV71_1 () (_ Bool))
(assert benchmark_18)
(assert (or (not V12) V25))
(assert (or (not V26) V27))
(assert (or (not V13) (not V26)))
(assert (or V4 V25))
(assert (or V24 V25))
(assert (or (not (= MV14 (_ bv2 3))) V22))
(assert (or (not (= MV15 (_ bv3 2))) (not V28)))
(assert (or V3 V21))
(assert (or V24 (not V28)))
(assert (or (not (= MV11 (_ bv5 3))) V24))
(assert (or (not V25) V27))
(assert (or V5 V27))
(assert (or (not (= MV14 (_ bv4 3))) V21))
(assert (or V5 V19))
(assert (or (not V0) (not V28)))
(assert (or (not (= MV2 (_ bv4 3))) (not (= MV16 (_ bv3 2)))))
(assert (or V18 V27))
(assert (or V7 V23))
(assert (or V0 V27))
(assert (or (not V6) (not V28)))
(assert (or V9 V22))
(assert (or (not V10) V23))
(assert (or (not V8) (not V19)))
(assert (or V24 (or V26 (not V28))))
(assert (or V24 (or V25 (not V27))))
(assert (or (not V1) (or V12 (not (= MV20 (_ bv1 3))))))
(assert (or V17 (or (not V25) (not V28))))
(assert (or V23 (or (not V24) (or (not V25) V27))))
(assert (= MV2_0 (= (bvand MV2 (_ bv1 3)  ) (_ bv1 3))))
(assert (= MV2_1 (= (bvand MV2 (_ bv2 3)  ) (_ bv2 3))))
(assert (= MV2_2 (= (bvand MV2 (_ bv4 3)  ) (_ bv4 3))))
(assert (= MV11_0 (= (bvand MV11 (_ bv1 3)  ) (_ bv1 3))))
(assert (= MV11_1 (= (bvand MV11 (_ bv2 3)  ) (_ bv2 3))))
(assert (= MV11_2 (= (bvand MV11 (_ bv4 3)  ) (_ bv4 3))))
(assert (= MV14_0 (= (bvand MV14 (_ bv1 3)  ) (_ bv1 3))))
(assert (= MV14_1 (= (bvand MV14 (_ bv2 3)  ) (_ bv2 3))))
(assert (= MV14_2 (= (bvand MV14 (_ bv4 3)  ) (_ bv4 3))))
(assert (= MV15_0 (= (bvand MV15 (_ bv1 2)  ) (_ bv1 2))))
(assert (= MV15_1 (= (bvand MV15 (_ bv2 2)  ) (_ bv2 2))))
(assert (= MV16_0 (= (bvand MV16 (_ bv1 2)  ) (_ bv1 2))))
(assert (= MV16_1 (= (bvand MV16 (_ bv2 2)  ) (_ bv2 2))))
(assert (= MV20_0 (= (bvand MV20 (_ bv1 3)  ) (_ bv1 3))))
(assert (= MV20_1 (= (bvand MV20 (_ bv2 3)  ) (_ bv2 3))))
(assert (= MV20_2 (= (bvand MV20 (_ bv4 3)  ) (_ bv4 3))))
(assert (= MV31_0 (= (bvand MV31 (_ bv1 2)  ) (_ bv1 2))))
(assert (= MV31_1 (= (bvand MV31 (_ bv2 2)  ) (_ bv2 2))))
(assert (= MV34_0 (= (bvand MV34 (_ bv1 2)  ) (_ bv1 2))))
(assert (= MV34_1 (= (bvand MV34 (_ bv2 2)  ) (_ bv2 2))))
(assert (= MV39_0 (= (bvand MV39 (_ bv1 3)  ) (_ bv1 3))))
(assert (= MV39_1 (= (bvand MV39 (_ bv2 3)  ) (_ bv2 3))))
(assert (= MV39_2 (= (bvand MV39 (_ bv4 3)  ) (_ bv4 3))))
(assert (= MV40_0 (= (bvand MV40 (_ bv1 3)  ) (_ bv1 3))))
(assert (= MV40_1 (= (bvand MV40 (_ bv2 3)  ) (_ bv2 3))))
(assert (= MV40_2 (= (bvand MV40 (_ bv4 3)  ) (_ bv4 3))))
(assert (= MV45_0 (= (bvand MV45 (_ bv1 2)  ) (_ bv1 2))))
(assert (= MV45_1 (= (bvand MV45 (_ bv2 2)  ) (_ bv2 2))))
(assert (= MV55_0 (= (bvand MV55 (_ bv1 3)  ) (_ bv1 3))))
(assert (= MV55_1 (= (bvand MV55 (_ bv2 3)  ) (_ bv2 3))))
(assert (= MV55_2 (= (bvand MV55 (_ bv4 3)  ) (_ bv4 3))))
(assert (= MV57_0 (= (bvand MV57 (_ bv1 3)  ) (_ bv1 3))))
(assert (= MV57_1 (= (bvand MV57 (_ bv2 3)  ) (_ bv2 3))))
(assert (= MV57_2 (= (bvand MV57 (_ bv4 3)  ) (_ bv4 3))))
(assert (= MV71_0 (= (bvand MV71 (_ bv1 2)  ) (_ bv1 2))))
(assert (= MV71_1 (= (bvand MV71 (_ bv2 2)  ) (_ bv2 2))))
